p edge 20 43 8
v 2 5 10
v 6 4 6 9 11 14 19
v 2 12 20
v 1 16
v 1 15
v 3 1 7 17
v 3 3 8 18
v 2 2 13
e 1 9
e 1 14
e 1 19
e 1 20
e 2 6
e 2 7
e 2 14
e 3 16
e 4 9
e 4 18
e 5 6
e 5 9
e 5 10
e 5 11
e 5 18
e 6 7
e 6 8
e 6 10
e 6 12
e 6 17
e 6 18
e 6 19
e 7 8
e 7 17
e 8 18
e 8 19
e 9 10
e 9 14
e 9 18
e 9 19
e 10 12
e 11 13
e 11 15
e 11 18
e 12 18
e 13 15
e 13 17
e 13 20
e 14 18
e 15 18
e 17 18
e 17 19
e 18 19
